NAME : portcgen-18-16
COMMENT : portcgen N=18, seed=16
TYPE : TSP
DIMENSION : 18
EDGE_WEIGHT_TYPE : EUC_2D
NODE_COORD_SECTION
1 -67852 -89779
2 -154259 -222461
3 315302 -78834
4 -270633 223267
5 167666 8541
6 -468547 205690
7 103768 246646
8 118211 299217
9 -119012 -141051
10 -86859 484535
11 64503 -125014
12 69081 -192344
13 -482013 167791
14 598226 -63214
15 199673 -205300
16 152053 -61163
17 240537 -69116
18 -205757 43847
